n = 15;
m = 51;

max_len = 6;
word_lens = [ 4, 4, 4, 4, 4, 4, 4, 4, 4, 4, 5, 5, 5, 5, 5, 5, 5, 5, 5, 5, 5, 5, 5, 5, 5, 5, 5, 5, 5, 5, 5, 5, 5, 5, 5, 5, 5, 6, 6, 6, 6, 6, 6, 6, 6, 6, 6, 6, 6, 6, 6 ];
words = [| H, A, Z, Y, E, E | W, A, R, M, E, E | C, O, O, L, E, E | L, A, W, N, E, E | L, U, S, H, E, E | D, A, M, P, E, E | T, E, N, T, E, E | O, P, E, N, E, E | R, A, I, N, E, E | P, O, O, L, E, E | S, K, I, E, S, E | S, H, I, N, E, E | E, V, E, N, T, E | S, U, N, N, Y, E | A, G, L, O, W, E | S, H, A, D, E, E | M, I, S, T, Y, E | S, N, O, W, Y, E | F, O, G, G, Y, E | H, A, L, L, S, E | P, A, T, I, O, E | G, L, A, R, E, E | W, I, N, D, Y, E | M, U, G, G, Y, E | D, R, I, E, R, E | V, E, N, U, E, E | Q, U, I, E, T, E | R, O, O, M, S, E | M, O, I, S, T, E | M, O, R, A, L, E | E, A, R, T, H, E | F, L, O, R, A, E | H, U, M, I, D, E | H, U, M, A, N, E | B, A, L, M, Y, E | F, A, U, N, A, E | G, U, L, C, H, E | D, I, N, I, N, G | C, L, O, U, D, Y | S, E, R, E, N, E | G, A, R, D, E, N | C, H, I, L, L, Y | C, A, N, A, D, A | W, I, N, T, R, Y | B, R, I, G, H, T | C, H, E, E, R, Y | C, O, L, D, E, R | S, U, N, L, I, T | I, N, D, O, O, R | F, R, I, G, I, D | B, R, E, E, Z, Y |];

pos_var_strat = first_fail;
pos_val_strat = indomain_median;
